c Generated map
c Size: 10 * 10, weights in range: 1 to 10, walls: False, with ratio 0.0
c dim 2 of 6
c
p sp 100 180
c graph contains 100 nodes and 180 arcs
c
a 1 11 1
a 11 1 1
a 1 2 4
a 2 1 4
a 2 12 3
a 12 2 3
a 2 3 10
a 3 2 10
a 3 13 10
a 13 3 10
a 3 4 1
a 4 3 1
a 4 14 2
a 14 4 2
a 4 5 3
a 5 4 3
a 5 15 8
a 15 5 8
a 5 6 10
a 6 5 10
a 6 16 10
a 16 6 10
a 6 7 10
a 7 6 10
a 7 17 6
a 17 7 6
a 7 8 10
a 8 7 10
a 8 18 1
a 18 8 1
a 8 9 4
a 9 8 4
a 9 19 6
a 19 9 6
a 9 10 1
a 10 9 1
a 10 20 5
a 20 10 5
a 11 21 4
a 21 11 4
a 11 12 2
a 12 11 2
a 12 22 10
a 22 12 10
a 12 13 8
a 13 12 8
a 13 23 9
a 23 13 9
a 13 14 4
a 14 13 4
a 14 24 4
a 24 14 4
a 14 15 6
a 15 14 6
a 15 25 10
a 25 15 10
a 15 16 9
a 16 15 9
a 16 26 5
a 26 16 5
a 16 17 10
a 17 16 10
a 17 27 10
a 27 17 10
a 17 18 5
a 18 17 5
a 18 28 5
a 28 18 5
a 18 19 1
a 19 18 1
a 19 29 2
a 29 19 2
a 19 20 6
a 20 19 6
a 20 30 1
a 30 20 1
a 21 31 2
a 31 21 2
a 21 22 8
a 22 21 8
a 22 32 8
a 32 22 8
a 22 23 4
a 23 22 4
a 23 33 6
a 33 23 6
a 23 24 3
a 24 23 3
a 24 34 2
a 34 24 2
a 24 25 6
a 25 24 6
a 25 35 4
a 35 25 4
a 25 26 7
a 26 25 7
a 26 36 9
a 36 26 9
a 26 27 2
a 27 26 2
a 27 37 1
a 37 27 1
a 27 28 6
a 28 27 6
a 28 38 5
a 38 28 5
a 28 29 9
a 29 28 9
a 29 39 6
a 39 29 6
a 29 30 7
a 30 29 7
a 30 40 6
a 40 30 6
a 31 41 2
a 41 31 2
a 31 32 2
a 32 31 2
a 32 42 8
a 42 32 8
a 32 33 9
a 33 32 9
a 33 43 2
a 43 33 2
a 33 34 8
a 34 33 8
a 34 44 2
a 44 34 2
a 34 35 4
a 35 34 4
a 35 45 5
a 45 35 5
a 35 36 8
a 36 35 8
a 36 46 7
a 46 36 7
a 36 37 9
a 37 36 9
a 37 47 9
a 47 37 9
a 37 38 1
a 38 37 1
a 38 48 9
a 48 38 9
a 38 39 3
a 39 38 3
a 39 49 6
a 49 39 6
a 39 40 7
a 40 39 7
a 40 50 4
a 50 40 4
a 41 51 6
a 51 41 6
a 41 42 5
a 42 41 5
a 42 52 5
a 52 42 5
a 42 43 2
a 43 42 2
a 43 53 8
a 53 43 8
a 43 44 7
a 44 43 7
a 44 54 1
a 54 44 1
a 44 45 9
a 45 44 9
a 45 55 10
a 55 45 10
a 45 46 5
a 46 45 5
a 46 56 5
a 56 46 5
a 46 47 6
a 47 46 6
a 47 57 1
a 57 47 1
a 47 48 6
a 48 47 6
a 48 58 3
a 58 48 3
a 48 49 8
a 49 48 8
a 49 59 2
a 59 49 2
a 49 50 6
a 50 49 6
a 50 60 3
a 60 50 3
a 51 61 5
a 61 51 5
a 51 52 5
a 52 51 5
a 52 62 4
a 62 52 4
a 52 53 5
a 53 52 5
a 53 63 6
a 63 53 6
a 53 54 1
a 54 53 1
a 54 64 9
a 64 54 9
a 54 55 1
a 55 54 1
a 55 65 9
a 65 55 9
a 55 56 8
a 56 55 8
a 56 66 4
a 66 56 4
a 56 57 3
a 57 56 3
a 57 67 1
a 67 57 1
a 57 58 2
a 58 57 2
a 58 68 1
a 68 58 1
a 58 59 7
a 59 58 7
a 59 69 2
a 69 59 2
a 59 60 7
a 60 59 7
a 60 70 3
a 70 60 3
a 61 71 1
a 71 61 1
a 61 62 5
a 62 61 5
a 62 72 8
a 72 62 8
a 62 63 10
a 63 62 10
a 63 73 10
a 73 63 10
a 63 64 5
a 64 63 5
a 64 74 6
a 74 64 6
a 64 65 7
a 65 64 7
a 65 75 4
a 75 65 4
a 65 66 2
a 66 65 2
a 66 76 1
a 76 66 1
a 66 67 1
a 67 66 1
a 67 77 3
a 77 67 3
a 67 68 3
a 68 67 3
a 68 78 3
a 78 68 3
a 68 69 1
a 69 68 1
a 69 79 10
a 79 69 10
a 69 70 1
a 70 69 1
a 70 80 8
a 80 70 8
a 71 81 6
a 81 71 6
a 71 72 1
a 72 71 1
a 72 82 4
a 82 72 4
a 72 73 2
a 73 72 2
a 73 83 6
a 83 73 6
a 73 74 5
a 74 73 5
a 74 84 7
a 84 74 7
a 74 75 4
a 75 74 4
a 75 85 7
a 85 75 7
a 75 76 9
a 76 75 9
a 76 86 10
a 86 76 10
a 76 77 3
a 77 76 3
a 77 87 2
a 87 77 2
a 77 78 8
a 78 77 8
a 78 88 7
a 88 78 7
a 78 79 7
a 79 78 7
a 79 89 6
a 89 79 6
a 79 80 8
a 80 79 8
a 80 90 9
a 90 80 9
a 81 91 2
a 91 81 2
a 81 82 7
a 82 81 7
a 82 92 3
a 92 82 3
a 82 83 5
a 83 82 5
a 83 93 5
a 93 83 5
a 83 84 8
a 84 83 8
a 84 94 10
a 94 84 10
a 84 85 8
a 85 84 8
a 85 95 3
a 95 85 3
a 85 86 6
a 86 85 6
a 86 96 10
a 96 86 10
a 86 87 1
a 87 86 1
a 87 97 7
a 97 87 7
a 87 88 9
a 88 87 9
a 88 98 1
a 98 88 1
a 88 89 8
a 89 88 8
a 89 99 6
a 99 89 6
a 89 90 3
a 90 89 3
a 90 100 1
a 100 90 1
a 91 92 3
a 92 91 3
a 92 93 1
a 93 92 1
a 93 94 8
a 94 93 8
a 94 95 7
a 95 94 7
a 95 96 1
a 96 95 1
a 96 97 9
a 97 96 9
a 97 98 7
a 98 97 7
a 98 99 6
a 99 98 6
a 99 100 10
a 100 99 10
